certificates/rado_a14_c260_N51.cnf
c Rad2 upper bound instance: x1 + 14*x2 - x3 = 260, interval [1,51]
p cnf 51 368
1 7 19 0
-1 -7 -19 0
1 20 21 0
-1 -20 -21 0
1 21 35 0
-1 -21 -35 0
1 22 49 0
-1 -22 -49 0
2 8 19 0
-2 -8 -19 0
2 20 22 0
-2 -20 -22 0
2 21 36 0
-2 -21 -36 0
2 22 50 0
-2 -22 -50 0
3 9 19 0
-3 -9 -19 0
3 20 23 0
-3 -20 -23 0
3 21 37 0
-3 -21 -37 0
3 22 51 0
-3 -22 -51 0
4 10 19 0
-4 -10 -19 0
4 20 24 0
-4 -20 -24 0
4 21 38 0
-4 -21 -38 0
5 11 19 0
-5 -11 -19 0
5 20 25 0
-5 -20 -25 0
5 21 39 0
-5 -21 -39 0
6 12 19 0
-6 -12 -19 0
6 20 26 0
-6 -20 -26 0
6 21 40 0
-6 -21 -40 0
7 13 19 0
-7 -13 -19 0
7 20 27 0
-7 -20 -27 0
7 21 41 0
-7 -21 -41 0
8 14 19 0
-8 -14 -19 0
8 20 28 0
-8 -20 -28 0
8 21 42 0
-8 -21 -42 0
1 9 18 0
-1 -9 -18 0
9 15 19 0
-9 -15 -19 0
9 20 29 0
-9 -20 -29 0
9 21 43 0
-9 -21 -43 0
2 10 18 0
-2 -10 -18 0
10 16 19 0
-10 -16 -19 0
10 20 30 0
-10 -20 -30 0
10 21 44 0
-10 -21 -44 0
3 11 18 0
-3 -11 -18 0
11 17 19 0
-11 -17 -19 0
11 20 31 0
-11 -20 -31 0
11 21 45 0
-11 -21 -45 0
4 12 18 0
-4 -12 -18 0
12 18 19 0
-12 -18 -19 0
12 20 32 0
-12 -20 -32 0
12 21 46 0
-12 -21 -46 0
5 13 18 0
-5 -13 -18 0
13 19 0
-13 -19 0
13 20 33 0
-13 -20 -33 0
13 21 47 0
-13 -21 -47 0
6 14 18 0
-6 -14 -18 0
14 19 20 0
-14 -19 -20 0
14 20 34 0
-14 -20 -34 0
14 21 48 0
-14 -21 -48 0
7 15 18 0
-7 -15 -18 0
15 19 21 0
-15 -19 -21 0
15 20 35 0
-15 -20 -35 0
15 21 49 0
-15 -21 -49 0
8 16 18 0
-8 -16 -18 0
16 19 22 0
-16 -19 -22 0
16 20 36 0
-16 -20 -36 0
16 21 50 0
-16 -21 -50 0
9 17 18 0
-9 -17 -18 0
17 19 23 0
-17 -19 -23 0
17 20 37 0
-17 -20 -37 0
17 21 51 0
-17 -21 -51 0
10 18 0
-10 -18 0
18 19 24 0
-18 -19 -24 0
18 20 38 0
-18 -20 -38 0
11 18 19 0
-11 -18 -19 0
19 25 0
-19 -25 0
19 20 39 0
-19 -20 -39 0
12 18 20 0
-12 -18 -20 0
19 20 26 0
-19 -20 -26 0
20 40 0
-20 -40 0
13 18 21 0
-13 -18 -21 0
19 21 27 0
-19 -21 -27 0
20 21 41 0
-20 -21 -41 0
14 18 22 0
-14 -18 -22 0
19 22 28 0
-19 -22 -28 0
20 22 42 0
-20 -22 -42 0
1 17 23 0
-1 -17 -23 0
15 18 23 0
-15 -18 -23 0
19 23 29 0
-19 -23 -29 0
20 23 43 0
-20 -23 -43 0
2 17 24 0
-2 -17 -24 0
16 18 24 0
-16 -18 -24 0
19 24 30 0
-19 -24 -30 0
20 24 44 0
-20 -24 -44 0
3 17 25 0
-3 -17 -25 0
17 18 25 0
-17 -18 -25 0
19 25 31 0
-19 -25 -31 0
20 25 45 0
-20 -25 -45 0
4 17 26 0
-4 -17 -26 0
18 26 0
-18 -26 0
19 26 32 0
-19 -26 -32 0
20 26 46 0
-20 -26 -46 0
5 17 27 0
-5 -17 -27 0
18 19 27 0
-18 -19 -27 0
19 27 33 0
-19 -27 -33 0
20 27 47 0
-20 -27 -47 0
6 17 28 0
-6 -17 -28 0
18 20 28 0
-18 -20 -28 0
19 28 34 0
-19 -28 -34 0
20 28 48 0
-20 -28 -48 0
7 17 29 0
-7 -17 -29 0
18 21 29 0
-18 -21 -29 0
19 29 35 0
-19 -29 -35 0
20 29 49 0
-20 -29 -49 0
8 17 30 0
-8 -17 -30 0
18 22 30 0
-18 -22 -30 0
19 30 36 0
-19 -30 -36 0
20 30 50 0
-20 -30 -50 0
9 17 31 0
-9 -17 -31 0
18 23 31 0
-18 -23 -31 0
19 31 37 0
-19 -31 -37 0
20 31 51 0
-20 -31 -51 0
10 17 32 0
-10 -17 -32 0
18 24 32 0
-18 -24 -32 0
19 32 38 0
-19 -32 -38 0
11 17 33 0
-11 -17 -33 0
18 25 33 0
-18 -25 -33 0
19 33 39 0
-19 -33 -39 0
12 17 34 0
-12 -17 -34 0
18 26 34 0
-18 -26 -34 0
19 34 40 0
-19 -34 -40 0
13 17 35 0
-13 -17 -35 0
18 27 35 0
-18 -27 -35 0
19 35 41 0
-19 -35 -41 0
14 17 36 0
-14 -17 -36 0
18 28 36 0
-18 -28 -36 0
19 36 42 0
-19 -36 -42 0
1 16 37 0
-1 -16 -37 0
15 17 37 0
-15 -17 -37 0
18 29 37 0
-18 -29 -37 0
19 37 43 0
-19 -37 -43 0
2 16 38 0
-2 -16 -38 0
16 17 38 0
-16 -17 -38 0
18 30 38 0
-18 -30 -38 0
19 38 44 0
-19 -38 -44 0
3 16 39 0
-3 -16 -39 0
17 39 0
-17 -39 0
18 31 39 0
-18 -31 -39 0
19 39 45 0
-19 -39 -45 0
4 16 40 0
-4 -16 -40 0
17 18 40 0
-17 -18 -40 0
18 32 40 0
-18 -32 -40 0
19 40 46 0
-19 -40 -46 0
5 16 41 0
-5 -16 -41 0
17 19 41 0
-17 -19 -41 0
18 33 41 0
-18 -33 -41 0
19 41 47 0
-19 -41 -47 0
6 16 42 0
-6 -16 -42 0
17 20 42 0
-17 -20 -42 0
18 34 42 0
-18 -34 -42 0
19 42 48 0
-19 -42 -48 0
7 16 43 0
-7 -16 -43 0
17 21 43 0
-17 -21 -43 0
18 35 43 0
-18 -35 -43 0
19 43 49 0
-19 -43 -49 0
8 16 44 0
-8 -16 -44 0
17 22 44 0
-17 -22 -44 0
18 36 44 0
-18 -36 -44 0
19 44 50 0
-19 -44 -50 0
9 16 45 0
-9 -16 -45 0
17 23 45 0
-17 -23 -45 0
18 37 45 0
-18 -37 -45 0
19 45 51 0
-19 -45 -51 0
10 16 46 0
-10 -16 -46 0
17 24 46 0
-17 -24 -46 0
18 38 46 0
-18 -38 -46 0
11 16 47 0
-11 -16 -47 0
17 25 47 0
-17 -25 -47 0
18 39 47 0
-18 -39 -47 0
12 16 48 0
-12 -16 -48 0
17 26 48 0
-17 -26 -48 0
18 40 48 0
-18 -40 -48 0
13 16 49 0
-13 -16 -49 0
17 27 49 0
-17 -27 -49 0
18 41 49 0
-18 -41 -49 0
14 16 50 0
-14 -16 -50 0
17 28 50 0
-17 -28 -50 0
18 42 50 0
-18 -42 -50 0
1 15 51 0
-1 -15 -51 0
15 16 51 0
-15 -16 -51 0
17 29 51 0
-17 -29 -51 0
18 43 51 0
-18 -43 -51 0
