certificates/rado_a14_c260_N51.drat
-45 -47 -49 -51 0
19 -47 -49 0
-47 -49 -51 0
d -45 -47 -49 -51 0
25 47 -51 0
-49 -51 0
d -47 -49 -51 0
47 -51 0
d 25 47 -51 0
-25 -51 0
-50 -51 0
-51 0
-19 -21 0
d -27 -19 -21 0
-21 0
17 0
-39 0
5 0
-27 0
19 0
-13 0
-25 0
-11 0
-23 0
-41 0
47 0
18 0
45 0
20 0
7 0
-12 0
-10 0
-24 0
-26 0
-40 0
-28 0
-37 0
-38 0
-9 0
-14 0
-42 0
-1 0
-15 0
-29 0
46 0
44 0
6 0
3 0
4 0
43 0
48 0
8 0
0
